50
1 0 24
2 0 3
3 0 72
3 2 48
4 0 38
4 1 31
4 2 76
4 3 33
5 0 80
5 1 19
5 2 70
5 3 27
5 4 48
6 0 23
6 2 15
6 3 15
6 4 34
6 5 79
7 0 73
7 1 15
7 2 38
7 3 5
7 4 14
7 6 5
8 0 52
8 1 67
8 2 44
8 3 17
8 4 46
8 5 55
8 6 23
8 7 6
9 0 63
9 1 70
9 2 62
9 3 2
9 4 80
9 6 64
9 7 33
9 8 79
10 0 80
10 1 63
10 2 13
10 3 11
10 4 22
10 5 61
10 6 69
10 7 53
10 8 46
10 9 74
11 0 79
11 2 30
11 3 72
11 4 26
11 5 21
11 6 56
11 7 30
11 8 45
11 9 58
11 10 43
12 0 22
12 1 46
12 2 9
12 3 75
12 4 35
12 5 13
12 6 61
12 8 51
12 9 25
12 10 53
12 11 4
13 0 58
13 1 41
13 2 58
13 3 16
13 4 13
13 5 9
13 7 16
13 8 16
13 9 77
13 10 15
13 11 52
14 0 68
14 1 36
14 2 69
14 4 39
14 5 48
14 6 60
14 7 54
14 8 4
14 9 80
14 10 38
14 12 77
14 13 7
15 0 35
15 1 6
15 2 65
15 3 65
15 4 26
15 5 42
15 6 60
15 7 74
15 8 28
15 9 76
15 10 19
15 11 79
15 12 29
15 13 48
15 14 16
16 0 18
16 2 2
16 3 32
16 4 62
16 5 30
16 6 46
16 9 8
16 10 59
16 11 51
16 12 25
16 13 25
16 14 21
16 15 55
17 0 19
17 1 53
17 2 41
17 3 55
17 4 39
17 5 26
17 6 53
17 7 48
17 8 50
17 9 30
17 11 50
17 12 70
17 13 53
17 14 38
17 15 36
17 16 44
18 0 47
18 1 79
18 2 58
18 3 19
18 4 70
18 5 19
18 7 53
18 9 29
18 10 65
18 12 75
18 13 29
18 14 50
18 15 57
18 16 16
19 0 61
19 1 46
19 3 52
19 4 47
19 5 57
19 6 55
19 7 71
19 9 40
19 10 37
19 11 50
19 12 1
19 13 14
19 15 68
19 16 21
19 17 20
19 18 10
20 0 15
20 1 20
20 2 66
20 3 3
20 4 80
20 5 45
20 6 44
20 7 77
20 8 62
20 9 33
20 10 31
20 11 18
20 12 53
20 13 13
20 14 51
20 15 26
20 16 60
20 17 19
20 18 73
20 19 5
21 0 48
21 1 71
21 2 69
21 3 63
21 4 31
21 5 68
21 6 33
21 7 30
21 8 57
21 9 75
21 10 43
21 11 72
21 12 4
21 14 58
21 15 70
21 16 31
21 17 32
21 18 33
21 19 4
21 20 62
22 0 25
22 1 47
22 2 55
22 3 5
22 4 30
22 5 14
22 8 46
22 9 22
22 10 17
22 11 51
22 12 10
22 13 49
22 14 13
22 15 43
22 16 66
22 18 78
22 19 73
22 20 26
22 21 59
23 0 17
23 1 54
23 2 18
23 4 71
23 5 32
23 6 69
23 8 8
23 9 4
23 10 28
23 11 69
23 12 47
23 13 60
23 14 32
23 15 41
23 16 5
23 17 38
23 18 4
23 19 78
23 20 11
23 21 48
23 22 48
24 0 49
24 2 12
24 3 47
24 5 38
24 6 60
24 7 21
24 8 19
24 9 38
24 11 21
24 12 63
24 13 27
24 14 2
24 15 55
24 16 25
24 17 41
24 18 40
24 19 27
24 20 14
24 21 5
24 22 19
24 23 2
25 0 2
25 1 65
25 2 22
25 3 7
25 4 28
25 5 34
25 7 52
25 8 63
25 9 78
25 10 76
25 11 41
25 12 10
25 13 23
25 14 29
25 15 52
25 16 39
25 17 72
25 18 50
25 19 27
25 20 15
25 21 13
25 22 21
25 23 39
25 24 57
26 0 54
26 1 2
26 4 6
26 5 60
26 6 7
26 7 6
26 8 49
26 9 40
26 10 79
26 12 63
26 15 42
26 16 8
26 17 64
26 18 72
26 19 3
26 20 4
26 21 34
26 22 5
26 23 10
26 24 20
26 25 42
27 0 21
27 1 17
27 2 74
27 3 58
27 4 49
27 5 10
27 7 54
27 8 18
27 9 43
27 10 36
27 11 19
27 12 23
27 13 65
27 14 52
27 15 75
27 17 42
27 18 13
27 19 4
27 20 79
27 21 32
27 22 18
27 23 26
27 24 59
27 25 19
27 26 7
28 0 10
28 1 75
28 2 44
28 3 67
28 4 63
28 5 7
28 7 12
28 8 8
28 9 8
28 10 46
28 11 51
28 12 76
28 13 67
28 14 15
28 15 28
28 16 75
28 17 65
28 18 2
28 19 75
28 20 50
28 21 74
28 22 8
28 23 39
28 24 76
28 25 19
28 26 3
28 27 26
29 0 23
29 1 37
29 2 49
29 4 36
29 5 68
29 6 34
29 7 26
29 8 52
29 9 35
29 10 25
29 11 80
29 12 75
29 13 40
29 14 45
29 15 63
29 16 50
29 18 17
29 19 12
29 20 61
29 21 69
29 22 24
29 24 29
29 25 23
29 27 38
29 28 38
30 0 50
30 1 12
30 2 33
30 3 32
30 4 77
30 5 39
30 6 18
30 7 38
30 8 20
30 10 7
30 11 6
30 12 8
30 13 70
30 14 60
30 15 40
30 16 30
30 17 30
30 18 35
30 19 6
30 20 65
30 21 45
30 22 47
30 23 17
30 24 24
30 25 32
30 26 76
30 27 31
30 28 49
30 29 14
31 0 1
31 1 66
31 2 27
31 3 14
31 4 29
31 5 29
31 6 3
31 7 68
31 8 19
31 9 40
31 10 13
31 11 4
31 12 30
31 13 45
31 14 68
31 15 6
31 18 60
31 19 57
31 20 38
31 21 47
31 22 21
31 24 50
31 25 73
31 26 67
31 27 24
31 28 38
31 29 68
31 30 61
32 0 9
32 1 63
32 2 53
32 3 34
32 4 10
32 5 67
32 6 1
32 7 11
32 8 77
32 9 72
32 10 2
32 11 34
32 12 26
32 13 36
32 14 20
32 15 64
32 16 55
32 18 60
32 19 22
32 20 56
32 21 24
32 22 12
32 23 29
32 24 62
32 25 28
32 26 72
32 27 30
32 28 76
32 29 10
32 30 54
32 31 17
33 0 63
33 1 22
33 3 14
33 4 32
33 5 71
33 6 74
33 7 18
33 8 41
33 9 47
33 10 78
33 11 72
33 13 43
33 14 23
33 15 22
33 17 19
33 18 29
33 19 25
33 21 55
33 22 8
33 23 51
33 24 65
33 25 38
33 26 77
33 27 28
33 28 43
33 29 57
33 30 78
33 31 24
33 32 17
34 0 43
34 1 38
34 2 61
34 3 16
34 5 67
34 6 6
34 7 78
34 8 50
34 9 60
34 10 56
34 11 36
34 12 59
34 14 16
34 15 1
34 16 71
34 17 6
34 18 11
34 19 21
34 22 40
34 23 40
34 24 51
34 26 71
34 27 56
34 28 71
34 29 50
34 30 2
34 31 12
34 32 27
34 33 13
35 0 16
35 1 44
35 2 37
35 4 61
35 5 77
35 6 18
35 8 39
35 9 61
35 11 6
35 12 75
35 13 44
35 14 27
35 15 27
35 16 80
35 18 29
35 19 25
35 20 20
35 21 18
35 23 25
35 24 73
35 25 60
35 26 31
35 27 67
35 28 30
35 29 34
35 30 64
35 31 73
35 32 70
35 33 71
35 34 60
36 0 35
36 1 30
36 2 7
36 3 5
36 4 30
36 5 42
36 6 7
36 7 13
36 9 43
36 10 43
36 11 37
36 12 32
36 13 61
36 14 2
36 15 65
36 16 14
36 17 80
36 18 8
36 19 52
36 20 27
36 21 49
36 22 64
36 23 72
36 24 54
36 25 20
36 26 1
36 27 80
36 29 18
36 30 15
36 31 52
36 32 76
36 33 21
36 34 2
36 35 32
37 0 3
37 1 4
37 2 7
37 3 51
37 4 6
37 5 79
37 6 67
37 7 53
37 8 25
37 9 52
37 10 34
37 11 13
37 13 11
37 14 55
37 15 39
37 16 75
37 17 28
37 18 60
37 19 48
37 20 41
37 21 49
37 22 5
37 23 74
37 24 6
37 25 57
37 26 66
37 27 61
37 29 11
37 30 6
37 31 10
37 32 40
37 33 18
37 35 45
37 36 75
38 0 58
38 1 10
38 2 66
38 3 66
38 5 39
38 6 32
38 7 49
38 8 60
38 9 2
38 10 16
38 11 59
38 12 41
38 13 38
38 14 54
38 15 3
38 16 56
38 17 43
38 18 60
38 19 9
38 20 41
38 21 8
38 22 70
38 28 63
38 29 20
38 30 12
38 31 4
38 32 34
38 33 54
38 34 12
38 35 23
38 36 48
38 37 44
39 0 74
39 2 60
39 3 49
39 4 4
39 5 59
39 7 45
39 8 40
39 10 25
39 11 56
39 12 16
39 13 59
39 14 12
39 15 27
39 16 65
39 18 51
39 19 74
39 20 31
39 21 56
39 22 31
39 23 70
39 24 47
39 25 1
39 26 44
39 27 60
39 28 77
39 29 28
39 30 34
39 31 13
39 32 7
39 33 8
39 34 29
39 35 37
39 36 73
39 37 41
39 38 9
40 0 37
40 1 32
40 2 41
40 3 77
40 4 23
40 6 71
40 7 26
40 8 49
40 9 2
40 10 79
40 11 79
40 12 17
40 14 64
40 15 76
40 17 61
40 18 50
40 19 70
40 20 63
40 21 12
40 22 45
40 23 45
40 24 53
40 25 16
40 26 63
40 27 46
40 28 77
40 29 16
40 30 22
40 31 34
40 32 6
40 33 68
40 34 40
40 35 29
40 36 16
40 37 40
40 38 39
40 39 44
41 1 1
41 2 71
41 3 56
41 4 33
41 5 62
41 6 16
41 7 65
41 8 73
41 9 37
41 10 74
41 11 53
41 12 34
41 13 13
41 14 67
41 16 63
41 17 14
41 18 18
41 19 35
41 21 73
41 22 28
41 23 18
41 24 40
41 25 70
41 26 49
41 27 27
41 28 47
41 29 24
41 30 62
41 31 78
41 32 1
41 33 50
41 34 9
41 35 41
41 36 44
41 37 19
41 38 73
41 39 54
41 40 28
42 0 33
42 1 60
42 2 77
42 3 42
42 4 67
42 5 64
42 6 45
42 7 34
42 8 60
42 9 62
42 10 28
42 11 14
42 12 10
42 13 69
42 14 7
42 15 6
42 16 38
42 17 76
42 18 9
42 20 3
42 21 53
42 24 40
42 25 7
42 26 50
42 28 33
42 29 37
42 30 29
42 31 53
42 32 47
42 33 52
42 34 25
42 35 32
42 36 14
42 37 13
42 38 58
42 39 5
42 40 45
42 41 61
43 0 52
43 1 45
43 2 54
43 3 67
43 4 73
43 5 35
43 6 3
43 7 42
43 8 78
43 9 21
43 10 20
43 12 41
43 13 40
43 14 28
43 15 38
43 16 16
43 17 67
43 18 42
43 19 36
43 20 49
43 21 43
43 22 80
43 23 37
43 24 45
43 26 61
43 27 74
43 28 41
43 29 62
43 30 17
43 31 39
43 32 18
43 33 42
43 34 23
43 35 27
43 36 66
43 37 74
43 38 43
43 39 56
43 40 34
43 41 76
43 42 49
44 0 31
44 1 39
44 2 31
44 3 73
44 4 8
44 5 76
44 6 70
44 7 77
44 8 74
44 9 77
44 10 46
44 11 63
44 12 41
44 13 15
44 14 31
44 16 79
44 17 65
44 18 41
44 19 30
44 20 24
44 21 15
44 22 23
44 23 48
44 24 37
44 25 66
44 26 7
44 27 39
44 28 80
44 29 71
44 31 40
44 32 38
44 33 38
44 34 50
44 35 28
44 36 65
44 37 15
44 38 79
44 39 19
44 40 12
44 41 73
44 42 12
44 43 69
45 1 54
45 2 75
45 3 14
45 4 57
45 5 37
45 6 58
45 7 32
45 8 60
45 9 69
45 10 70
45 11 53
45 12 58
45 13 62
45 14 27
45 15 65
45 16 66
45 17 58
45 18 24
45 19 68
45 20 46
45 21 11
45 22 23
45 23 34
45 25 52
45 27 60
45 28 71
45 30 63
45 32 67
45 33 51
45 34 43
45 35 42
45 36 70
45 37 75
45 38 42
45 39 57
45 40 68
45 42 9
45 43 61
45 44 48
46 2 57
46 3 12
46 4 50
46 5 3
46 7 79
46 8 11
46 9 57
46 10 2
46 11 78
46 13 7
46 14 35
46 15 76
46 16 53
46 17 18
46 18 59
46 19 62
46 20 18
46 21 56
46 22 64
46 23 4
46 24 61
46 25 41
46 26 76
46 29 29
46 30 5
46 32 66
46 34 50
46 35 25
46 37 33
46 38 20
46 39 1
46 40 35
46 41 43
46 42 71
46 43 80
46 44 55
46 45 23
47 0 42
47 1 62
47 2 35
47 3 40
47 6 79
47 7 11
47 8 80
47 9 36
47 10 34
47 12 48
47 13 5
47 14 45
47 15 41
47 16 32
47 17 67
47 18 27
47 19 75
47 20 32
47 21 34
47 22 44
47 23 15
47 25 78
47 26 12
47 27 39
47 28 36
47 29 2
47 30 38
47 31 66
47 32 26
47 33 20
47 34 13
47 35 19
47 36 13
47 37 22
47 38 72
47 39 57
47 42 71
47 43 62
47 44 80
47 45 21
47 46 14
48 0 23
48 2 42
48 3 17
48 5 64
48 7 76
48 8 70
48 9 16
48 11 28
48 12 70
48 13 7
48 14 22
48 15 61
48 17 62
48 18 26
48 19 4
48 21 77
48 22 41
48 23 29
48 24 22
48 25 7
48 26 55
48 27 60
48 28 72
48 29 2
48 30 77
48 31 64
48 32 60
48 33 11
48 34 1
48 35 69
48 36 7
48 37 78
48 38 46
48 39 26
48 40 34
48 41 61
48 42 39
48 43 65
48 44 51
48 46 78
48 47 72
49 0 4
49 1 80
49 2 65
49 3 31
49 4 30
49 5 73
49 6 36
49 7 17
49 8 34
49 9 80
49 10 69
49 11 46
49 12 36
49 13 56
49 14 18
49 15 29
49 16 2
49 17 18
49 18 59
49 19 36
49 20 52
49 21 8
49 22 72
49 23 53
49 24 45
49 25 51
49 26 6
49 27 36
49 28 41
49 32 48
49 33 19
49 34 6
49 35 4
49 36 60
49 37 30
49 38 58
49 40 66
49 41 19
49 43 36
49 44 72
49 45 48
49 46 80
49 47 78
49 48 27
